50
750
600
599
569
531
529
524
513
492
479
447
439
424
413
410
406
395
377
373
371
368
323
310
303
302
285
269
254
239
239
231
228
225
213
212
208
207
204
182
180
168
151
150
148
139
133
121
112
100
90
76
